c "175203.clq"
p edge 202 2976
e 1 17
e 1 18
e 1 19
e 1 20
e 1 21
e 1 22
e 1 26
e 1 27
e 1 28
e 1 29
e 1 31
e 1 37
e 1 42
e 1 44
e 1 48
e 1 49
e 1 63
e 1 85
e 1 88
e 1 103
e 1 135
e 1 142
e 1 143
e 1 148
e 1 192
e 1 199
e 2 17
e 2 18
e 2 19
e 2 20
e 2 21
e 2 22
e 2 23
e 2 24
e 2 25
e 2 29
e 2 36
e 2 37
e 2 38
e 2 39
e 2 40
e 2 45
e 2 49
e 2 50
e 2 52
e 2 53
e 2 56
e 2 70
e 2 71
e 2 74
e 2 78
e 2 80
e 2 84
e 2 87
e 2 94
e 2 95
e 2 99
e 2 111
e 2 113
e 2 117
e 2 119
e 2 125
e 2 126
e 2 130
e 2 132
e 2 135
e 2 138
e 2 146
e 2 149
e 2 153
e 2 163
e 2 178
e 2 189
e 3 17
e 3 18
e 3 19
e 3 21
e 3 22
e 3 23
e 3 25
e 3 26
e 3 32
e 3 35
e 3 46
e 3 57
e 3 58
e 3 60
e 3 66
e 3 67
e 3 71
e 3 77
e 3 93
e 3 98
e 3 100
e 3 103
e 3 107
e 3 139
e 3 144
e 3 145
e 3 150
e 3 169
e 3 176
e 3 194
e 3 199
e 4 17
e 4 24
e 4 32
e 4 39
e 4 82
e 4 85
e 4 110
e 4 151
e 4 155
e 5 17
e 5 18
e 5 19
e 5 21
e 5 23
e 5 24
e 5 26
e 5 27
e 5 30
e 5 32
e 5 34
e 5 38
e 5 39
e 5 40
e 5 43
e 5 44
e 5 51
e 5 56
e 5 65
e 5 66
e 5 78
e 5 80
e 5 84
e 5 113
e 5 155
e 5 169
e 5 170
e 5 189
e 5 197
e 5 201
e 6 17
e 6 18
e 6 19
e 6 20
e 6 22
e 6 25
e 6 26
e 6 27
e 6 28
e 6 29
e 6 33
e 6 35
e 6 39
e 6 41
e 6 42
e 6 43
e 6 44
e 6 46
e 6 53
e 6 59
e 6 64
e 6 76
e 6 77
e 6 84
e 6 91
e 6 92
e 6 96
e 6 99
e 6 101
e 6 102
e 6 107
e 6 109
e 6 111
e 6 112
e 6 113
e 6 115
e 6 117
e 6 118
e 6 127
e 6 138
e 6 144
e 6 145
e 6 149
e 6 154
e 6 162
e 6 165
e 6 171
e 6 172
e 6 173
e 6 179
e 7 17
e 7 18
e 7 19
e 7 20
e 7 21
e 7 22
e 7 23
e 7 24
e 7 25
e 7 26
e 7 27
e 7 28
e 7 31
e 7 33
e 7 34
e 7 38
e 7 41
e 7 42
e 7 44
e 7 45
e 7 52
e 7 54
e 7 59
e 7 60
e 7 62
e 7 66
e 7 69
e 7 74
e 7 79
e 7 82
e 7 88
e 7 93
e 7 108
e 7 115
e 7 139
e 7 142
e 7 146
e 7 148
e 7 153
e 8 17
e 8 18
e 8 19
e 8 20
e 8 22
e 8 23
e 8 25
e 8 33
e 8 34
e 8 37
e 8 39
e 8 47
e 8 53
e 8 71
e 8 74
e 8 82
e 8 83
e 8 86
e 8 88
e 8 93
e 8 94
e 8 96
e 8 97
e 8 102
e 8 122
e 8 128
e 8 131
e 8 140
e 8 147
e 8 153
e 8 154
e 8 160
e 8 173
e 8 176
e 8 189
e 8 200
e 9 17
e 9 18
e 9 19
e 9 20
e 9 21
e 9 23
e 9 24
e 9 26
e 9 30
e 9 31
e 9 33
e 9 34
e 9 41
e 9 55
e 9 63
e 9 66
e 9 67
e 9 70
e 9 71
e 9 90
e 9 99
e 9 100
e 9 107
e 9 111
e 9 117
e 9 137
e 9 139
e 9 175
e 9 180
e 9 186
e 9 191
e 9 195
e 9 201
e 10 17
e 10 18
e 10 19
e 10 20
e 10 21
e 10 22
e 10 23
e 10 24
e 10 26
e 10 28
e 10 29
e 10 30
e 10 32
e 10 33
e 10 35
e 10 36
e 10 38
e 10 39
e 10 40
e 10 41
e 10 44
e 10 48
e 10 49
e 10 55
e 10 56
e 10 58
e 10 60
e 10 66
e 10 74
e 10 75
e 10 77
e 10 79
e 10 81
e 10 82
e 10 85
e 10 95
e 10 97
e 10 108
e 10 110
e 10 115
e 10 117
e 10 123
e 10 124
e 10 125
e 10 132
e 10 148
e 10 150
e 10 156
e 10 158
e 10 171
e 10 181
e 10 184
e 10 195
e 11 17
e 11 18
e 11 20
e 11 23
e 11 25
e 11 27
e 11 28
e 11 29
e 11 32
e 11 35
e 11 37
e 11 46
e 11 47
e 11 48
e 11 54
e 11 55
e 11 57
e 11 64
e 11 76
e 11 90
e 11 91
e 11 92
e 11 95
e 11 101
e 11 102
e 11 106
e 11 115
e 11 126
e 11 145
e 11 166
e 11 179
e 11 191
e 12 17
e 12 18
e 12 19
e 12 20
e 12 21
e 12 34
e 12 39
e 12 42
e 12 48
e 12 61
e 12 64
e 12 66
e 12 67
e 12 70
e 12 74
e 12 81
e 12 88
e 12 96
e 12 101
e 12 103
e 12 107
e 12 108
e 12 112
e 12 115
e 12 128
e 12 131
e 12 132
e 12 134
e 12 137
e 12 177
e 12 178
e 12 180
e 12 186
e 12 202
e 13 17
e 13 18
e 13 19
e 13 20
e 13 21
e 13 22
e 13 24
e 13 30
e 13 31
e 13 42
e 13 45
e 13 58
e 13 89
e 13 95
e 13 152
e 13 166
e 13 167
e 13 180
e 13 197
e 14 17
e 14 18
e 14 19
e 14 20
e 14 21
e 14 22
e 14 23
e 14 25
e 14 27
e 14 32
e 14 37
e 14 40
e 14 43
e 14 46
e 14 50
e 14 52
e 14 61
e 14 68
e 14 70
e 14 75
e 14 76
e 14 95
e 14 96
e 14 101
e 14 110
e 14 111
e 14 113
e 14 120
e 14 131
e 14 134
e 14 139
e 14 140
e 14 144
e 14 156
e 14 158
e 14 159
e 14 160
e 14 168
e 14 181
e 14 183
e 14 184
e 14 187
e 14 191
e 14 195
e 14 196
e 14 198
e 14 200
e 15 17
e 15 18
e 15 19
e 15 20
e 15 21
e 15 22
e 15 24
e 15 25
e 15 26
e 15 31
e 15 33
e 15 36
e 15 38
e 15 39
e 15 42
e 15 60
e 15 62
e 15 67
e 15 68
e 15 71
e 15 73
e 15 77
e 15 81
e 15 87
e 15 90
e 15 93
e 15 105
e 15 106
e 15 114
e 15 119
e 15 120
e 15 132
e 15 133
e 15 137
e 15 157
e 15 159
e 15 161
e 15 163
e 15 166
e 15 169
e 15 177
e 15 182
e 15 187
e 15 194
e 15 200
e 15 202
e 16 17
e 16 18
e 16 19
e 16 20
e 16 21
e 16 22
e 16 23
e 16 24
e 16 26
e 16 27
e 16 29
e 16 30
e 16 31
e 16 32
e 16 33
e 16 35
e 16 36
e 16 38
e 16 39
e 16 41
e 16 42
e 16 43
e 16 45
e 16 47
e 16 48
e 16 49
e 16 51
e 16 61
e 16 63
e 16 72
e 16 73
e 16 79
e 16 81
e 16 86
e 16 89
e 16 91
e 16 101
e 16 114
e 16 115
e 16 116
e 16 120
e 16 125
e 16 129
e 16 144
e 16 147
e 16 155
e 16 161
e 16 178
e 16 180
e 16 183
e 17 18
e 17 19
e 17 20
e 17 21
e 17 22
e 17 23
e 17 24
e 17 25
e 17 27
e 17 28
e 17 29
e 17 30
e 17 31
e 17 32
e 17 33
e 17 35
e 17 36
e 17 37
e 17 38
e 17 39
e 17 42
e 17 43
e 17 45
e 17 46
e 17 48
e 17 49
e 17 50
e 17 52
e 17 55
e 17 60
e 17 63
e 17 65
e 17 67
e 17 68
e 17 69
e 17 75
e 17 76
e 17 77
e 17 79
e 17 80
e 17 87
e 17 88
e 17 89
e 17 91
e 17 92
e 17 98
e 17 100
e 17 103
e 17 106
e 17 108
e 17 114
e 17 116
e 17 118
e 17 122
e 17 127
e 17 130
e 17 133
e 17 135
e 17 137
e 17 138
e 17 140
e 17 149
e 17 150
e 17 151
e 17 157
e 17 161
e 17 162
e 17 163
e 17 164
e 17 171
e 17 172
e 17 180
e 17 181
e 17 183
e 17 187
e 17 189
e 17 195
e 17 197
e 18 19
e 18 20
e 18 21
e 18 22
e 18 23
e 18 24
e 18 25
e 18 26
e 18 27
e 18 28
e 18 29
e 18 30
e 18 31
e 18 33
e 18 36
e 18 37
e 18 38
e 18 39
e 18 40
e 18 41
e 18 42
e 18 44
e 18 45
e 18 47
e 18 48
e 18 50
e 18 52
e 18 53
e 18 54
e 18 55
e 18 56
e 18 57
e 18 58
e 18 66
e 18 67
e 18 68
e 18 71
e 18 73
e 18 74
e 18 75
e 18 76
e 18 81
e 18 87
e 18 95
e 18 102
e 18 104
e 18 113
e 18 114
e 18 117
e 18 120
e 18 121
e 18 122
e 18 137
e 18 138
e 18 139
e 18 140
e 18 141
e 18 145
e 18 147
e 18 148
e 18 153
e 18 156
e 18 157
e 18 162
e 18 163
e 18 166
e 18 172
e 18 174
e 18 177
e 18 179
e 18 181
e 18 194
e 18 197
e 18 200
e 19 20
e 19 21
e 19 22
e 19 23
e 19 24
e 19 25
e 19 26
e 19 27
e 19 28
e 19 29
e 19 30
e 19 31
e 19 32
e 19 33
e 19 34
e 19 35
e 19 36
e 19 37
e 19 38
e 19 39
e 19 40
e 19 41
e 19 42
e 19 43
e 19 46
e 19 48
e 19 49
e 19 50
e 19 51
e 19 52
e 19 55
e 19 56
e 19 57
e 19 59
e 19 64
e 19 65
e 19 66
e 19 68
e 19 69
e 19 72
e 19 75
e 19 77
e 19 78
e 19 80
e 19 82
e 19 83
e 19 88
e 19 90
e 19 93
e 19 98
e 19 101
e 19 102
e 19 103
e 19 105
e 19 106
e 19 108
e 19 111
e 19 112
e 19 115
e 19 116
e 19 118
e 19 121
e 19 122
e 19 124
e 19 127
e 19 128
e 19 135
e 19 137
e 19 139
e 19 140
e 19 145
e 19 151
e 19 164
e 19 171
e 19 174
e 19 179
e 19 182
e 19 184
e 19 191
e 19 194
e 19 198
e 20 21
e 20 22
e 20 23
e 20 24
e 20 25
e 20 26
e 20 27
e 20 28
e 20 29
e 20 30
e 20 31
e 20 34
e 20 38
e 20 39
e 20 40
e 20 49
e 20 50
e 20 52
e 20 53
e 20 54
e 20 57
e 20 61
e 20 70
e 20 71
e 20 74
e 20 83
e 20 85
e 20 89
e 20 90
e 20 94
e 20 98
e 20 100
e 20 106
e 20 111
e 20 121
e 20 129
e 20 134
e 20 136
e 20 140
e 20 142
e 20 147
e 20 148
e 20 151
e 20 156
e 20 159
e 20 173
e 20 182
e 20 187
e 20 199
e 20 201
e 20 202
e 21 22
e 21 23
e 21 24
e 21 25
e 21 26
e 21 27
e 21 28
e 21 31
e 21 32
e 21 34
e 21 35
e 21 36
e 21 37
e 21 41
e 21 42
e 21 43
e 21 46
e 21 47
e 21 51
e 21 53
e 21 56
e 21 58
e 21 59
e 21 60
e 21 61
e 21 62
e 21 63
e 21 65
e 21 69
e 21 70
e 21 80
e 21 92
e 21 93
e 21 96
e 21 101
e 21 104
e 21 106
e 21 107
e 21 108
e 21 111
e 21 114
e 21 116
e 21 118
e 21 122
e 21 132
e 21 139
e 21 144
e 21 158
e 21 167
e 21 171
e 21 179
e 21 187
e 21 189
e 21 190
e 22 23
e 22 24
e 22 25
e 22 26
e 22 28
e 22 29
e 22 30
e 22 36
e 22 37
e 22 40
e 22 41
e 22 42
e 22 43
e 22 44
e 22 45
e 22 47
e 22 49
e 22 54
e 22 70
e 22 71
e 22 72
e 22 73
e 22 74
e 22 76
e 22 81
e 22 83
e 22 92
e 22 102
e 22 104
e 22 105
e 22 111
e 22 119
e 22 123
e 22 130
e 22 140
e 22 147
e 22 151
e 22 153
e 22 154
e 22 162
e 22 166
e 22 172
e 22 174
e 22 176
e 22 179
e 22 191
e 22 197
e 23 24
e 23 25
e 23 26
e 23 27
e 23 28
e 23 29
e 23 30
e 23 31
e 23 32
e 23 35
e 23 36
e 23 39
e 23 41
e 23 42
e 23 45
e 23 46
e 23 50
e 23 53
e 23 54
e 23 61
e 23 63
e 23 64
e 23 67
e 23 69
e 23 71
e 23 76
e 23 77
e 23 83
e 23 84
e 23 86
e 23 90
e 23 94
e 23 96
e 23 98
e 23 101
e 23 104
e 23 107
e 23 108
e 23 109
e 23 113
e 23 120
e 23 128
e 23 130
e 23 133
e 23 136
e 23 137
e 23 144
e 23 148
e 23 152
e 23 156
e 23 160
e 23 166
e 23 169
e 23 171
e 23 175
e 23 176
e 23 177
e 23 185
e 23 190
e 23 193
e 23 195
e 23 201
e 24 25
e 24 26
e 24 27
e 24 28
e 24 29
e 24 30
e 24 31
e 24 33
e 24 34
e 24 38
e 24 41
e 24 43
e 24 46
e 24 47
e 24 48
e 24 49
e 24 51
e 24 52
e 24 56
e 24 58
e 24 68
e 24 69
e 24 72
e 24 73
e 24 75
e 24 76
e 24 79
e 24 82
e 24 86
e 24 89
e 24 90
e 24 94
e 24 95
e 24 98
e 24 99
e 24 103
e 24 105
e 24 108
e 24 112
e 24 115
e 24 119
e 24 121
e 24 122
e 24 124
e 24 130
e 24 132
e 24 141
e 24 143
e 24 152
e 24 158
e 24 161
e 24 162
e 24 163
e 24 165
e 24 166
e 24 167
e 24 181
e 24 189
e 24 197
e 24 199
e 25 27
e 25 28
e 25 29
e 25 31
e 25 32
e 25 33
e 25 34
e 25 35
e 25 36
e 25 40
e 25 42
e 25 44
e 25 45
e 25 47
e 25 48
e 25 51
e 25 52
e 25 54
e 25 57
e 25 62
e 25 64
e 25 68
e 25 69
e 25 71
e 25 74
e 25 78
e 25 81
e 25 83
e 25 85
e 25 86
e 25 88
e 25 89
e 25 96
e 25 98
e 25 101
e 25 110
e 25 112
e 25 114
e 25 131
e 25 138
e 25 140
e 25 143
e 25 149
e 25 152
e 25 154
e 25 158
e 25 162
e 25 168
e 25 169
e 25 172
e 25 173
e 25 183
e 25 184
e 25 185
e 25 187
e 25 188
e 25 194
e 25 196
e 26 27
e 26 28
e 26 30
e 26 33
e 26 34
e 26 35
e 26 37
e 26 38
e 26 40
e 26 41
e 26 42
e 26 46
e 26 47
e 26 48
e 26 49
e 26 51
e 26 54
e 26 57
e 26 59
e 26 61
e 26 66
e 26 72
e 26 73
e 26 78
e 26 79
e 26 87
e 26 93
e 26 94
e 26 96
e 26 99
e 26 100
e 26 103
e 26 108
e 26 113
e 26 119
e 26 137
e 26 139
e 26 147
e 26 148
e 26 149
e 26 167
e 26 176
e 26 193
e 26 196
e 27 28
e 27 29
e 27 30
e 27 32
e 27 34
e 27 35
e 27 43
e 27 45
e 27 47
e 27 48
e 27 50
e 27 51
e 27 52
e 27 53
e 27 56
e 27 57
e 27 58
e 27 59
e 27 61
e 27 62
e 27 63
e 27 71
e 27 73
e 27 75
e 27 77
e 27 83
e 27 84
e 27 85
e 27 90
e 27 93
e 27 95
e 27 102
e 27 103
e 27 104
e 27 107
e 27 110
e 27 112
e 27 115
e 27 117
e 27 118
e 27 132
e 27 133
e 27 134
e 27 137
e 27 138
e 27 145
e 27 146
e 27 147
e 27 150
e 27 153
e 27 162
e 27 163
e 27 164
e 27 165
e 27 172
e 27 173
e 27 182
e 27 187
e 27 193
e 27 194
e 27 195
e 27 196
e 27 201
e 28 29
e 28 30
e 28 31
e 28 32
e 28 33
e 28 34
e 28 36
e 28 37
e 28 38
e 28 40
e 28 44
e 28 45
e 28 50
e 28 51
e 28 53
e 28 54
e 28 55
e 28 56
e 28 59
e 28 60
e 28 61
e 28 63
e 28 69
e 28 70
e 28 72
e 28 74
e 28 79
e 28 87
e 28 97
e 28 103
e 28 110
e 28 116
e 28 121
e 28 132
e 28 134
e 28 135
e 28 136
e 28 143
e 28 150
e 28 156
e 28 169
e 28 178
e 28 184
e 28 192
e 28 197
e 29 30
e 29 32
e 29 33
e 29 34
e 29 35
e 29 38
e 29 41
e 29 44
e 29 46
e 29 50
e 29 51
e 29 55
e 29 58
e 29 59
e 29 60
e 29 62
e 29 65
e 29 87
e 29 94
e 29 112
e 29 120
e 29 123
e 29 124
e 29 130
e 29 131
e 29 135
e 29 141
e 29 142
e 29 147
e 29 158
e 29 163
e 29 169
e 29 174
e 29 189
e 29 195
e 30 31
e 30 32
e 30 35
e 30 36
e 30 40
e 30 43
e 30 44
e 30 45
e 30 47
e 30 48
e 30 51
e 30 56
e 30 59
e 30 61
e 30 63
e 30 68
e 30 69
e 30 70
e 30 71
e 30 75
e 30 76
e 30 80
e 30 87
e 30 88
e 30 94
e 30 100
e 30 108
e 30 109
e 30 123
e 30 132
e 30 141
e 30 145
e 30 146
e 30 157
e 30 160
e 30 171
e 30 172
e 30 177
e 30 184
e 30 188
e 30 191
e 30 192
e 31 33
e 31 34
e 31 36
e 31 37
e 31 44
e 31 45
e 31 46
e 31 48
e 31 50
e 31 55
e 31 56
e 31 58
e 31 60
e 31 62
e 31 67
e 31 73
e 31 80
e 31 83
e 31 86
e 31 92
e 31 101
e 31 117
e 31 119
e 31 132
e 31 134
e 31 141
e 31 158
e 31 159
e 31 161
e 31 162
e 31 175
e 31 190
e 31 199
e 32 34
e 32 35
e 32 37
e 32 40
e 32 44
e 32 47
e 32 48
e 32 49
e 32 51
e 32 52
e 32 54
e 32 55
e 32 57
e 32 58
e 32 63
e 32 66
e 32 69
e 32 72
e 32 74
e 32 77
e 32 80
e 32 81
e 32 82
e 32 92
e 32 94
e 32 97
e 32 98
e 32 102
e 32 107
e 32 108
e 32 111
e 32 113
e 32 118
e 32 125
e 32 135
e 32 141
e 32 155
e 32 159
e 32 162
e 32 167
e 32 181
e 32 185
e 32 187
e 32 197
e 32 198
e 33 36
e 33 37
e 33 38
e 33 40
e 33 50
e 33 51
e 33 52
e 33 55
e 33 57
e 33 61
e 33 65
e 33 76
e 33 83
e 33 88
e 33 100
e 33 103
e 33 105
e 33 106
e 33 117
e 33 118
e 33 119
e 33 123
e 33 126
e 33 128
e 33 132
e 33 164
e 33 178
e 33 180
e 33 190
e 33 194
e 34 35
e 34 36
e 34 37
e 34 38
e 34 40
e 34 41
e 34 44
e 34 51
e 34 53
e 34 54
e 34 58
e 34 59
e 34 67
e 34 71
e 34 76
e 34 77
e 34 78
e 34 79
e 34 80
e 34 83
e 34 85
e 34 86
e 34 87
e 34 96
e 34 97
e 34 105
e 34 109
e 34 113
e 34 116
e 34 124
e 34 125
e 34 126
e 34 131
e 34 133
e 34 143
e 34 144
e 34 147
e 34 151
e 34 153
e 34 155
e 34 166
e 34 171
e 34 172
e 34 173
e 34 192
e 34 195
e 34 198
e 34 199
e 35 39
e 35 42
e 35 43
e 35 44
e 35 46
e 35 50
e 35 53
e 35 62
e 35 64
e 35 66
e 35 83
e 35 84
e 35 86
e 35 90
e 35 91
e 35 94
e 35 97
e 35 107
e 35 108
e 35 123
e 35 127
e 35 129
e 35 130
e 35 136
e 35 146
e 35 151
e 35 164
e 35 182
e 35 187
e 35 191
e 36 41
e 36 45
e 36 52
e 36 53
e 36 63
e 36 64
e 36 68
e 36 70
e 36 80
e 36 105
e 36 110
e 36 114
e 36 143
e 36 165
e 36 180
e 36 185
e 37 43
e 37 65
e 37 72
e 37 74
e 37 77
e 37 79
e 37 94
e 37 101
e 37 102
e 37 103
e 37 109
e 37 120
e 37 138
e 37 141
e 37 167
e 37 173
e 38 39
e 38 43
e 38 46
e 38 47
e 38 52
e 38 54
e 38 55
e 38 57
e 38 58
e 38 62
e 38 68
e 38 69
e 38 74
e 38 75
e 38 78
e 38 87
e 38 91
e 38 93
e 38 98
e 38 113
e 38 114
e 38 119
e 38 127
e 38 131
e 38 133
e 38 135
e 38 151
e 38 152
e 38 168
e 38 179
e 38 184
e 38 198
e 38 202
e 39 40
e 39 43
e 39 46
e 39 55
e 39 61
e 39 63
e 39 65
e 39 69
e 39 70
e 39 76
e 39 87
e 39 95
e 39 97
e 39 99
e 39 111
e 39 115
e 39 116
e 39 117
e 39 121
e 39 135
e 39 150
e 39 151
e 39 156
e 39 174
e 39 183
e 39 195
e 40 41
e 40 43
e 40 45
e 40 46
e 40 49
e 40 50
e 40 51
e 40 54
e 40 57
e 40 58
e 40 59
e 40 61
e 40 63
e 40 70
e 40 72
e 40 74
e 40 75
e 40 79
e 40 81
e 40 84
e 40 89
e 40 93
e 40 96
e 40 101
e 40 104
e 40 111
e 40 112
e 40 117
e 40 120
e 40 131
e 40 138
e 40 141
e 40 158
e 40 163
e 40 168
e 40 174
e 40 181
e 40 199
e 40 202
e 41 47
e 41 49
e 41 53
e 41 54
e 41 56
e 41 57
e 41 58
e 41 59
e 41 73
e 41 79
e 41 82
e 41 83
e 41 86
e 41 88
e 41 90
e 41 91
e 41 99
e 41 106
e 41 109
e 41 118
e 41 119
e 41 120
e 41 121
e 41 125
e 41 131
e 41 141
e 41 146
e 41 156
e 41 165
e 41 174
e 41 186
e 41 196
e 41 198
e 41 202
e 42 44
e 42 45
e 42 47
e 42 49
e 42 50
e 42 51
e 42 52
e 42 53
e 42 54
e 42 55
e 42 56
e 42 57
e 42 62
e 42 63
e 42 66
e 42 68
e 42 72
e 42 79
e 42 82
e 42 84
e 42 90
e 42 91
e 42 93
e 42 95
e 42 113
e 42 116
e 42 117
e 42 131
e 42 136
e 42 137
e 42 140
e 42 143
e 42 153
e 42 166
e 42 170
e 42 189
e 42 197
e 43 53
e 43 59
e 43 65
e 43 68
e 43 70
e 43 76
e 43 83
e 43 84
e 43 94
e 43 95
e 43 102
e 43 106
e 43 120
e 43 121
e 43 123
e 43 140
e 43 145
e 43 152
e 43 160
e 43 163
e 43 164
e 43 171
e 43 187
e 43 190
e 43 196
e 44 49
e 44 54
e 44 60
e 44 62
e 44 65
e 44 66
e 44 72
e 44 89
e 44 111
e 44 129
e 44 131
e 44 176
e 44 182
e 44 185
e 44 198
e 44 202
e 45 48
e 45 52
e 45 53
e 45 56
e 45 59
e 45 64
e 45 66
e 45 67
e 45 70
e 45 78
e 45 81
e 45 82
e 45 102
e 45 104
e 45 105
e 45 107
e 45 108
e 45 113
e 45 114
e 45 126
e 45 128
e 45 129
e 45 131
e 45 142
e 45 161
e 45 164
e 45 175
e 45 176
e 45 186
e 45 193
e 46 47
e 46 59
e 46 60
e 46 64
e 46 66
e 46 69
e 46 72
e 46 75
e 46 85
e 46 88
e 46 97
e 46 100
e 46 123
e 46 133
e 46 138
e 46 151
e 46 159
e 46 185
e 46 192
e 46 200
e 47 49
e 47 58
e 47 65
e 47 67
e 47 68
e 47 91
e 47 106
e 47 119
e 47 135
e 47 142
e 47 148
e 47 164
e 47 170
e 47 192
e 48 59
e 48 60
e 48 61
e 48 68
e 48 69
e 48 72
e 48 86
e 48 87
e 48 88
e 48 90
e 48 98
e 48 109
e 48 112
e 48 117
e 48 121
e 48 123
e 48 131
e 48 132
e 48 134
e 48 164
e 48 165
e 48 173
e 48 199
e 49 50
e 49 63
e 49 64
e 49 73
e 49 77
e 49 99
e 49 102
e 49 110
e 49 114
e 49 124
e 49 139
e 49 151
e 49 155
e 49 170
e 50 55
e 50 57
e 50 64
e 50 65
e 50 67
e 50 68
e 50 77
e 50 80
e 50 81
e 50 84
e 50 94
e 50 103
e 50 105
e 50 120
e 50 121
e 50 125
e 50 140
e 50 176
e 50 186
e 50 201
e 50 202
e 51 56
e 51 62
e 51 71
e 51 78
e 51 79
e 51 88
e 51 94
e 51 96
e 51 98
e 51 100
e 51 103
e 51 104
e 51 105
e 51 116
e 51 118
e 51 120
e 51 126
e 51 127
e 51 128
e 51 130
e 51 152
e 51 192
e 52 58
e 52 60
e 52 82
e 52 90
e 52 107
e 52 109
e 52 114
e 52 128
e 52 146
e 52 147
e 52 156
e 52 202
e 53 55
e 53 56
e 53 60
e 53 65
e 53 66
e 53 73
e 53 74
e 53 89
e 53 93
e 53 100
e 53 104
e 53 116
e 53 118
e 53 122
e 53 125
e 53 148
e 53 150
e 53 155
e 53 158
e 53 170
e 53 178
e 53 183
e 53 190
e 53 193
e 53 194
e 53 196
e 53 200
e 54 57
e 54 60
e 54 65
e 54 67
e 54 68
e 54 74
e 54 80
e 54 85
e 54 89
e 54 95
e 54 102
e 54 111
e 54 114
e 54 120
e 54 128
e 54 135
e 54 142
e 54 157
e 54 160
e 54 162
e 54 167
e 54 171
e 54 176
e 54 182
e 54 184
e 55 62
e 55 72
e 55 75
e 55 76
e 55 80
e 55 84
e 55 91
e 55 94
e 55 121
e 55 133
e 55 141
e 55 144
e 55 148
e 55 157
e 55 159
e 55 161
e 55 162
e 55 188
e 55 190
e 55 195
e 55 197
e 56 61
e 56 64
e 56 67
e 56 70
e 56 78
e 56 98
e 56 101
e 56 119
e 56 127
e 56 139
e 56 173
e 56 185
e 56 187
e 57 61
e 57 64
e 57 72
e 57 80
e 57 81
e 57 83
e 57 87
e 57 88
e 57 89
e 57 95
e 57 99
e 57 127
e 57 132
e 57 134
e 57 136
e 57 142
e 57 145
e 57 148
e 57 160
e 57 162
e 57 168
e 57 171
e 57 177
e 57 178
e 57 186
e 58 60
e 58 64
e 58 71
e 58 73
e 58 92
e 58 104
e 58 106
e 58 117
e 58 134
e 58 136
e 58 141
e 58 183
e 58 201
e 59 62
e 59 73
e 59 136
e 59 139
e 59 142
e 59 147
e 59 155
e 59 156
e 59 159
e 59 161
e 59 179
e 59 182
e 59 188
e 60 62
e 60 64
e 60 69
e 60 72
e 60 75
e 60 76
e 60 86
e 60 93
e 60 97
e 60 99
e 60 100
e 60 102
e 60 103
e 60 106
e 60 112
e 60 128
e 60 129
e 60 138
e 60 142
e 60 153
e 60 158
e 60 165
e 60 167
e 60 169
e 60 172
e 60 185
e 60 186
e 60 191
e 60 195
e 61 62
e 61 65
e 61 73
e 61 77
e 61 78
e 61 85
e 61 100
e 61 105
e 61 110
e 61 116
e 61 151
e 61 154
e 61 165
e 61 168
e 61 170
e 61 177
e 61 186
e 61 187
e 62 63
e 62 71
e 62 77
e 62 79
e 62 81
e 62 82
e 62 92
e 62 96
e 62 110
e 62 114
e 62 124
e 62 149
e 62 150
e 62 152
e 62 156
e 62 164
e 62 169
e 62 193
e 62 194
e 62 199
e 63 65
e 63 67
e 63 100
e 63 117
e 63 119
e 63 123
e 63 124
e 63 125
e 63 127
e 63 129
e 63 149
e 63 153
e 63 154
e 63 166
e 63 170
e 63 172
e 63 178
e 63 183
e 63 192
e 64 81
e 64 87
e 64 90
e 64 92
e 64 93
e 64 97
e 64 110
e 64 114
e 64 134
e 64 164
e 64 173
e 64 176
e 64 184
e 64 190
e 65 67
e 65 85
e 65 89
e 65 95
e 65 97
e 65 101
e 65 102
e 65 107
e 65 108
e 65 109
e 65 115
e 65 125
e 65 128
e 65 131
e 65 141
e 65 145
e 65 155
e 65 159
e 65 163
e 65 164
e 65 167
e 65 168
e 65 174
e 65 179
e 65 184
e 65 190
e 66 78
e 66 82
e 66 94
e 66 95
e 66 99
e 66 100
e 66 122
e 66 133
e 66 141
e 66 144
e 66 149
e 66 156
e 67 70
e 67 78
e 67 83
e 67 84
e 67 138
e 67 154
e 67 180
e 68 69
e 68 73
e 68 84
e 68 91
e 68 124
e 68 129
e 68 142
e 68 148
e 68 154
e 68 189
e 69 75
e 69 78
e 69 80
e 69 81
e 69 85
e 69 86
e 69 91
e 69 100
e 69 110
e 69 117
e 69 118
e 69 134
e 69 146
e 69 158
e 69 185
e 70 76
e 70 79
e 70 85
e 70 91
e 70 99
e 70 104
e 70 115
e 70 121
e 70 136
e 70 143
e 70 148
e 70 149
e 70 158
e 70 189
e 70 192
e 70 194
e 70 197
e 70 200
e 71 80
e 71 81
e 71 85
e 71 86
e 71 88
e 71 96
e 71 98
e 71 104
e 71 112
e 71 115
e 71 121
e 71 122
e 71 126
e 71 136
e 71 143
e 71 150
e 71 155
e 71 170
e 71 171
e 71 179
e 71 188
e 72 73
e 72 75
e 72 82
e 72 85
e 72 97
e 72 103
e 72 105
e 72 107
e 72 109
e 72 123
e 72 135
e 72 144
e 72 167
e 72 183
e 73 77
e 73 82
e 73 84
e 73 87
e 73 92
e 73 96
e 73 101
e 73 111
e 73 113
e 73 129
e 73 130
e 73 133
e 73 137
e 73 149
e 73 173
e 73 187
e 73 191
e 73 196
e 73 197
e 73 199
e 73 200
e 74 75
e 74 78
e 74 92
e 74 106
e 74 108
e 74 110
e 74 117
e 74 122
e 74 133
e 74 135
e 74 157
e 74 158
e 74 165
e 74 166
e 74 171
e 74 178
e 74 187
e 75 78
e 75 86
e 75 92
e 75 99
e 75 107
e 75 109
e 75 111
e 75 126
e 75 130
e 75 137
e 75 145
e 75 146
e 75 156
e 75 165
e 75 166
e 75 176
e 75 183
e 75 185
e 75 193
e 75 197
e 76 97
e 76 105
e 76 112
e 76 127
e 76 143
e 76 149
e 76 165
e 77 79
e 77 85
e 77 86
e 77 88
e 77 89
e 77 91
e 77 92
e 77 98
e 77 105
e 77 109
e 77 129
e 77 147
e 77 150
e 77 155
e 77 156
e 77 175
e 77 181
e 77 182
e 77 196
e 77 197
e 78 82
e 78 89
e 78 93
e 78 116
e 78 119
e 78 126
e 78 134
e 78 138
e 78 143
e 78 147
e 78 149
e 78 152
e 78 168
e 78 174
e 78 176
e 78 177
e 78 191
e 78 195
e 79 83
e 79 90
e 79 96
e 79 99
e 79 103
e 79 107
e 79 116
e 79 120
e 79 123
e 79 133
e 79 137
e 79 139
e 79 147
e 79 167
e 79 172
e 79 175
e 80 91
e 80 121
e 80 122
e 80 150
e 80 161
e 80 165
e 80 184
e 80 201
e 81 84
e 81 86
e 81 89
e 81 113
e 81 121
e 81 135
e 81 141
e 81 162
e 81 177
e 81 180
e 81 182
e 81 192
e 81 199
e 81 201
e 82 109
e 82 128
e 82 141
e 82 152
e 82 157
e 82 161
e 82 200
e 83 84
e 83 96
e 83 105
e 83 114
e 83 116
e 83 124
e 83 136
e 83 146
e 83 162
e 83 168
e 83 171
e 83 177
e 83 181
e 83 182
e 83 188
e 84 89
e 84 104
e 84 109
e 84 135
e 84 199
e 85 92
e 85 98
e 85 118
e 85 127
e 85 132
e 85 135
e 85 144
e 85 150
e 85 154
e 85 160
e 85 186
e 85 189
e 85 191
e 86 87
e 86 93
e 86 97
e 86 115
e 86 130
e 86 134
e 86 136
e 86 145
e 86 157
e 86 168
e 86 173
e 86 180
e 86 198
e 87 95
e 87 124
e 87 150
e 87 152
e 87 153
e 87 166
e 88 90
e 88 101
e 88 104
e 88 126
e 88 165
e 88 179
e 88 194
e 89 91
e 89 92
e 89 112
e 89 114
e 89 118
e 89 128
e 89 148
e 89 150
e 89 158
e 89 192
e 89 201
e 90 97
e 90 99
e 90 100
e 90 113
e 90 118
e 90 165
e 90 190
e 91 104
e 91 127
e 91 129
e 91 134
e 91 143
e 91 153
e 91 168
e 91 170
e 92 99
e 92 110
e 92 123
e 92 124
e 92 130
e 92 134
e 92 136
e 92 146
e 92 153
e 92 183
e 92 202
e 93 97
e 93 107
e 93 127
e 93 139
e 93 152
e 93 154
e 93 163
e 93 168
e 93 177
e 93 194
e 93 197
e 93 199
e 94 106
e 94 110
e 94 111
e 94 119
e 94 125
e 94 144
e 94 145
e 94 149
e 94 152
e 94 159
e 94 162
e 94 179
e 94 181
e 94 189
e 94 195
e 94 196
e 94 198
e 95 98
e 95 108
e 95 113
e 95 120
e 95 122
e 95 136
e 95 140
e 95 164
e 95 184
e 95 192
e 95 193
e 96 104
e 96 106
e 96 175
e 96 184
e 97 102
e 97 106
e 97 110
e 97 118
e 97 136
e 97 137
e 97 142
e 97 157
e 97 158
e 97 161
e 97 175
e 97 178
e 97 193
e 97 201
e 98 121
e 98 126
e 98 154
e 98 178
e 99 129
e 99 130
e 99 132
e 99 140
e 99 186
e 99 189
e 100 112
e 100 124
e 100 128
e 100 133
e 100 145
e 100 146
e 100 152
e 100 157
e 100 163
e 100 167
e 100 185
e 100 195
e 101 119
e 101 123
e 101 129
e 101 148
e 101 155
e 101 171
e 101 193
e 101 200
e 102 112
e 102 122
e 102 131
e 102 158
e 102 160
e 102 181
e 102 188
e 102 198
e 103 105
e 103 116
e 103 123
e 103 128
e 103 133
e 103 156
e 103 159
e 103 171
e 103 175
e 103 176
e 103 177
e 103 189
e 103 192
e 104 122
e 104 124
e 104 129
e 104 130
e 104 136
e 104 145
e 104 149
e 104 151
e 104 155
e 104 164
e 104 200
e 105 112
e 105 116
e 105 119
e 105 122
e 105 125
e 105 153
e 105 157
e 105 191
e 105 200
e 105 201
e 106 120
e 106 126
e 106 130
e 106 193
e 107 109
e 107 125
e 107 127
e 107 129
e 107 146
e 107 174
e 107 176
e 107 188
e 107 192
e 107 198
e 107 201
e 108 109
e 108 115
e 108 144
e 108 154
e 108 185
e 109 126
e 109 127
e 109 149
e 109 161
e 109 169
e 109 170
e 109 174
e 109 202
e 110 128
e 110 140
e 110 160
e 110 164
e 110 166
e 110 175
e 110 199
e 111 138
e 111 170
e 111 177
e 111 202
e 112 123
e 112 153
e 112 172
e 112 191
e 113 115
e 113 125
e 113 126
e 113 137
e 113 139
e 113 177
e 113 189
e 114 124
e 114 129
e 114 157
e 114 161
e 114 164
e 114 169
e 114 179
e 114 182
e 114 190
e 114 196
e 115 155
e 115 159
e 115 172
e 115 175
e 115 178
e 115 180
e 115 186
e 116 133
e 116 146
e 116 157
e 116 161
e 116 169
e 116 180
e 116 181
e 116 185
e 116 195
e 116 200
e 117 118
e 117 126
e 117 150
e 117 160
e 117 168
e 117 178
e 117 190
e 118 138
e 118 146
e 118 148
e 118 149
e 118 157
e 118 159
e 118 173
e 118 180
e 118 181
e 118 191
e 118 194
e 119 124
e 119 147
e 119 166
e 120 122
e 120 151
e 120 160
e 120 166
e 120 178
e 120 190
e 120 196
e 121 144
e 121 150
e 121 160
e 121 169
e 122 127
e 122 134
e 122 137
e 122 138
e 122 146
e 122 151
e 122 156
e 122 163
e 122 193
e 122 194
e 122 200
e 123 125
e 123 130
e 123 140
e 123 168
e 123 176
e 123 193
e 124 125
e 124 143
e 124 154
e 124 168
e 124 179
e 124 193
e 125 126
e 125 179
e 125 183
e 126 142
e 126 144
e 126 147
e 126 151
e 126 165
e 126 169
e 126 188
e 126 192
e 127 167
e 127 173
e 127 178
e 128 132
e 128 155
e 128 161
e 129 142
e 129 152
e 130 131
e 130 133
e 131 160
e 131 181
e 131 198
e 132 143
e 132 172
e 132 183
e 133 138
e 133 139
e 133 140
e 133 142
e 133 160
e 133 174
e 133 186
e 133 188
e 133 194
e 134 145
e 134 154
e 134 159
e 134 174
e 134 184
e 134 198
e 135 139
e 135 143
e 135 154
e 135 157
e 135 183
e 135 188
e 135 190
e 136 153
e 136 170
e 136 189
e 136 196
e 137 162
e 137 170
e 137 174
e 137 193
e 138 143
e 138 167
e 138 180
e 138 184
e 138 185
e 139 163
e 139 186
e 140 141
e 140 142
e 140 160
e 140 173
e 140 201
e 141 159
e 141 167
e 141 168
e 141 177
e 141 180
e 141 188
e 141 200
e 142 144
e 142 180
e 142 199
e 143 155
e 143 191
e 145 185
e 146 170
e 146 175
e 147 172
e 147 177
e 148 163
e 148 173
e 148 174
e 148 188
e 148 198
e 149 152
e 149 161
e 149 165
e 149 175
e 150 172
e 151 154
e 152 174
e 154 170
e 154 176
e 154 196
e 155 201
e 156 186
e 157 169
e 157 183
e 157 191
e 158 159
e 158 170
e 158 181
e 158 193
e 159 182
e 159 202
e 160 163
e 160 175
e 160 181
e 160 192
e 162 175
e 162 178
e 162 182
e 162 190
e 162 202
e 163 187
e 164 167
e 164 186
e 164 202
e 165 188
e 165 202
e 166 197
e 167 185
e 168 169
e 169 175
e 169 186
e 170 179
e 170 182
e 170 188
e 172 182
e 172 187
e 172 196
e 173 183
e 174 190
e 176 194
e 176 198
e 177 199
e 182 184
e 186 195
e 186 196
e 187 188
e 197 198
e 199 200
e 199 201
